language Essence 1.3

letting class be
        function(1 --> 1, 2 --> 6, 3 --> 7, 4 --> 3, 5 --> 1, 6 --> 6, 7 --> 3, 8 --> 9, 9 --> 4, 10 --> 2, 11 --> 8,
                 12 --> 4, 13 --> 9, 14 --> 2, 15 --> 3, 16 --> 5, 17 --> 2, 18 --> 1, 19 --> 5, 20 --> 7, 21 --> 1,
                 22 --> 3, 23 --> 9, 24 --> 1, 25 --> 6, 26 --> 3)
letting deck_length be 29
letting deck_width be 70
letting length be
        function(1 --> 2, 2 --> 12, 3 --> 25, 4 --> 9, 5 --> 19, 6 --> 21, 7 --> 16, 8 --> 25, 9 --> 13, 10 --> 13,
                 11 --> 29, 12 --> 12, 13 --> 3, 14 --> 15, 15 --> 2, 16 --> 10, 17 --> 29, 18 --> 19, 19 --> 11,
                 20 --> 17, 21 --> 3, 22 --> 20, 23 --> 25, 24 --> 12, 25 --> 3, 26 --> 6)
letting n_classes be 9
letting n_containers be 26
letting separation be function({2, 9} --> 13, {3, 4} --> 53, {4, 9} --> 56)
letting width be
        function(1 --> 1, 2 --> 1, 3 --> 1, 4 --> 1, 5 --> 1, 6 --> 1, 7 --> 1, 8 --> 1, 9 --> 1, 10 --> 1, 11 --> 2,
                 12 --> 1, 13 --> 1, 14 --> 1, 15 --> 1, 16 --> 1, 17 --> 36, 18 --> 2, 19 --> 1, 20 --> 1, 21 --> 2,
                 22 --> 1, 23 --> 1, 24 --> 1, 25 --> 2, 26 --> 1)
